122     4       
27      24      20      22      
0       0       0       0       0       3       2       3       4       
5       0       0       0       4       3       10      76      81      
6       0       0       8       0       3       5       7       23      
6       0       0       9       0       3       6       8       12      
10      0       0       0       9       3       13      55      107     
4       0       8       0       0       2       11      47      
4       0       0       8       0       1       26      
3       0       0       0       5       3       9       17      31      
3       0       6       0       0       1       70      
9       0       0       9       0       3       14      16      19      
5       0       3       0       0       2       18      35      
3       7       0       0       0       3       15      21      24      
10      0       9       0       0       3       25      38      117     
3       0       0       3       0       2       22      83      
8       0       0       0       7       1       119     
8       0       0       0       7       1       84      
4       0       0       10      0       1       74      
3       9       0       0       0       2       20      100     
1       0       0       0       7       3       26      27      33      
10      10      0       0       0       1       52      
10      0       0       0       10      3       30      39      44      
6       0       0       0       4       2       63      73      
7       0       0       0       3       1       33      
5       4       0       0       0       3       29      46      50      
7       0       4       0       0       2       40      108     
4       3       0       0       0       2       32      89      
6       5       0       0       0       3       28      41      54      
9       0       7       0       0       3       68      91      106     
6       0       0       0       1       2       36      45      
7       0       9       0       0       2       101     118     
8       0       6       0       0       1       99      
2       0       4       0       0       1       51      
8       6       0       0       0       2       34      37      
5       0       0       7       0       3       57      66      121     
1       1       0       0       0       2       42      104     
2       0       0       0       6       3       53      56      61      
1       0       0       2       0       1       90      
5       9       0       0       0       2       91      102     
8       6       0       0       0       1       90      
2       0       0       0       8       2       43      83      
7       0       0       6       0       1       114     
5       0       0       10      0       2       52      60      
2       0       0       8       0       2       49      114     
3       0       0       0       2       1       75      
3       0       0       0       7       3       48      59      80      
8       0       0       10      0       1       82      
3       0       0       7       0       1       112     
8       10      0       0       0       1       64      
5       1       0       0       0       1       116     
9       0       2       0       0       1       58      
8       5       0       0       0       1       95      
5       0       3       0       0       1       105     
4       0       0       0       8       3       62      95      103     
10      0       0       8       0       1       120     
3       0       0       0       4       1       77      
7       0       7       0       0       1       84      
5       0       0       0       9       1       72      
1       0       0       0       10      2       77      82      
5       0       8       0       0       1       105     
7       5       0       0       0       2       67      76      
6       0       0       8       0       1       93      
9       0       0       1       0       3       88      98      105     
8       0       5       0       0       1       65      
10      0       0       0       10      2       69      85      
8       0       2       0       0       2       71      79      
6       0       5       0       0       1       111     
1       2       0       0       0       1       96      
5       0       0       9       0       1       97      
9       0       0       7       0       2       87      89      
3       0       8       0       0       1       98      
4       0       0       0       4       1       86      
7       0       0       0       7       2       93      110     
3       3       0       0       0       1       79      
10      0       0       2       0       1       115     
3       1       0       0       0       1       90      
5       0       4       0       0       1       82      
8       8       0       0       0       2       78      97      
4       0       6       0       0       1       100     
1       6       0       0       0       1       92      
10      0       0       5       0       1       100     
4       6       0       0       0       1       117     
6       0       0       4       0       2       92      94      
4       2       0       0       0       1       84      
5       0       0       0       5       1       89      
10      7       0       0       0       1       86      
10      10      0       0       0       1       109     
1       0       10      0       0       1       117     
7       0       8       0       0       1       91      
4       0       0       0       10      1       111     
2       0       2       0       0       1       94      
9       0       0       2       0       1       114     
9       0       6       0       0       1       113     
6       0       8       0       0       1       99      
6       0       0       0       8       1       102     
1       0       2       0       0       1       107     
10      0       0       0       9       1       111     
4       0       0       8       0       1       108     
9       0       0       0       3       1       110     
8       0       0       0       1       1       101     
6       0       0       9       0       1       121     
7       0       0       5       0       1       104     
10      0       2       0       0       1       103     
4       8       0       0       0       1       113     
2       0       0       0       5       1       106     
6       1       0       0       0       1       108     
9       0       3       0       0       1       112     
4       9       0       0       0       1       115     
5       0       6       0       0       1       109     
1       3       0       0       0       1       121     
3       0       2       0       0       1       116     
8       0       0       0       10      2       112     115     
1       0       5       0       0       1       113     
1       2       0       0       0       1       119     
1       0       3       0       0       1       120     
5       0       0       0       5       1       116     
4       0       0       0       8       1       120     
8       0       3       0       0       1       118     
3       0       0       7       0       1       119     
3       0       4       0       0       1       122     
10      0       8       0       0       1       122     
1       10      0       0       0       1       122     
0       0       0       0       0       0       